
List of user-set options:

                                    Name   Value                used
                           compl_inf_tol = 1                     yes
                         constr_viol_tol = 1                     yes
                            dual_inf_tol = 1000                  yes
                           linear_solver = ma97                  yes
                              ma86_small = 1e-30                  no
                                  ma86_u = 0.0001                 no
                              ma97_order = best                  yes
                              ma97_small = 1e-30                 yes
                            ma97_switch1 = at_start              yes
                            ma97_switch2 = od_hd_reuse           yes
                                  ma97_u = 1e-06                 yes
                               ma97_umax = 0.5                   yes
                                max_iter = 1000                  yes
                    max_refinement_steps = 20                    yes
                    min_refinement_steps = 5                     yes
                                 mu_init = 1e-06                 yes
           mu_superlinear_decrease_power = 1.25                  yes
                   nlp_scaling_min_value = 1e-08                 yes
                        option_file_name = Preset_Case:_7_pf.opt  yes
                             output_file = ./tmp/Preset_Case:_7_pf.output  yes
                      print_user_options = yes                   yes
        required_infeasibility_reduction = 1                      no
                                     tol = 1e-08                 yes
                   warm_start_bound_frac = 1e-20                 yes
                   warm_start_bound_push = 1e-20                 yes
                   warm_start_init_point = yes                   yes
              warm_start_mult_bound_push = 1e-20                 yes
                warm_start_mult_init_max = 1e+40                 yes
             warm_start_slack_bound_frac = 1e-20                 yes
             warm_start_slack_bound_push = 1e-20                 yes

******************************************************************************
This program contains Ipopt, a library for large-scale nonlinear optimization.
 Ipopt is released as open source code under the Eclipse Public License (EPL).
         For more information visit http://projects.coin-or.org/Ipopt
******************************************************************************

This is Ipopt version 3.12.10, running with linear solver ma97.

Number of nonzeros in equality constraint Jacobian...:   123422
Number of nonzeros in inequality constraint Jacobian.:      213
Number of nonzeros in Lagrangian Hessian.............:    49047

Total number of variables............................:    31589
                     variables with only lower bounds:    12912
                variables with lower and upper bounds:    15128
                     variables with only upper bounds:        0
Total number of equality constraints.................:    31483
Total number of inequality constraints...............:       25
        inequality constraints with only lower bounds:        4
   inequality constraints with lower and upper bounds:        0
        inequality constraints with only upper bounds:       21

iter    objective    inf_pr   inf_du lg(mu)  ||d||  lg(rg) alpha_du alpha_pr  ls
   0 -5.8759768e+00 4.05e-03 1.34e-07  -6.0 0.00e+00    -  0.00e+00 0.00e+00   0
   1 -5.8759767e+00 3.41e-03 5.06e+01  -6.0 8.75e+01    -  2.25e-01 1.72e-03h  1
   2 -5.8759600e+00 1.95e-03 2.90e+01  -6.0 7.86e+01    -  1.61e-01 2.55e-01f  1
   3 -5.8759023e+00 6.11e-03 9.22e+00  -6.0 5.44e+01    -  5.86e-01 6.34e-01f  1
   4 -5.8758414e+00 1.60e-03 2.12e-01  -6.0 1.72e+01    -  1.00e+00 1.00e+00f  1
   5 -5.8758387e+00 1.44e-05 1.59e-05  -6.0 7.73e-01    -  1.00e+00 1.00e+00h  1
   6 -5.8758387e+00 4.24e-10 3.15e-11  -6.0 1.05e-03    -  1.00e+00 1.00e+00h  1
   7 -5.8759343e+00 6.01e-03 1.13e+02  -7.5 6.29e+01    -  9.27e-01 5.36e-01h  1
   8 -5.8759831e+00 4.52e-03 1.79e+01  -7.5 3.38e+01    -  1.00e+00 8.66e-01h  1
   9 -5.8759757e+00 1.14e-04 2.17e-02  -7.5 5.91e+00    -  1.00e+00 1.00e+00h  1
iter    objective    inf_pr   inf_du lg(mu)  ||d||  lg(rg) alpha_du alpha_pr  ls
  10 -5.8759747e+00 2.42e-08 3.46e-06  -7.5 2.60e-01    -  1.00e+00 1.00e+00h  1
  11 -5.8759747e+00 1.85e-10 1.57e-10  -7.5 1.56e-03    -  1.00e+00 1.00e+00h  1
  12 -5.8759765e+00 2.10e-05 1.07e+00  -9.0 2.61e+00    -  9.45e-01 8.27e-01h  1
  13 -5.8759768e+00 1.12e-06 3.91e-02  -9.0 4.89e-01    -  1.00e+00 9.92e-01f  1
  14 -5.8759768e+00 4.58e-10 1.23e-08  -9.0 4.70e-03    -  1.00e+00 1.00e+00f  1
  15 -5.8759768e+00 2.68e-10 1.30e-11  -9.0 6.93e-07    -  1.00e+00 1.00e+00h  1

Number of Iterations....: 15

                                   (scaled)                 (unscaled)
Objective...............:  -4.5906068589199895e+00   -5.8759767794175870e+00
Dual infeasibility......:   1.3005429341155037e-11    1.6646949556678447e-11
Constraint violation....:   2.6774265909825651e-10    2.6774265909825651e-10
Complementarity.........:   9.1251441433513177e-10    1.1680184503489687e-09
Overall NLP error.......:   9.1251441433513177e-10    1.1680184503489687e-09


Number of objective function evaluations             = 16
Number of objective gradient evaluations             = 16
Number of equality constraint evaluations            = 16
Number of inequality constraint evaluations          = 16
Number of equality constraint Jacobian evaluations   = 16
Number of inequality constraint Jacobian evaluations = 16
Number of Lagrangian Hessian evaluations             = 15
Total CPU secs in IPOPT (w/o function evaluations)   =     24.529
Total CPU secs in NLP function evaluations           =      0.455

EXIT: Optimal Solution Found.
